SDVRP instances/custom_instances/p04_17_splitx10_0.vrp
NAME:p04_17_splitx10_
BEST_KNOWN: 0
COMMENT: 0
DIMENSION: 665
CAPACITY: 2000
EDGE_WEIGHT_FORMAT: FUNCTION
EDGE_WEIGHT_TYPE: EXACT_2D
NODE_COORD_SECTION
1 0.00000 0.00000
2 24 -48
3 24 -48
4 24 -48
5 30 23
6 30 23
7 30 23
8 33 -41
9 33 -41
10 33 -41
11 33 -41
12 -28 -40
13 -28 -40
14 40 -30
15 40 -30
16 40 -30
17 40 -30
18 40 -30
19 40 -30
20 40 -30
21 -28 15
22 -28 15
23 -28 15
24 -28 15
25 -28 15
26 -46 26
27 -46 26
28 -46 26
29 -46 26
30 26 -7
31 26 -7
32 26 -7
33 26 -7
34 -9 -6
35 -9 -6
36 -9 -6
37 -9 -6
38 -9 -6
39 -9 -6
40 -9 -6
41 -9 -6
42 19 -27
43 19 -27
44 19 -27
45 19 -27
46 19 -27
47 32 -24
48 32 -24
49 32 -24
50 32 -24
51 -41 -19
52 -41 -19
53 -41 -19
54 -41 -19
55 -41 -19
56 -41 -19
57 -41 -19
58 16 -24
59 16 -24
60 16 -24
61 16 -24
62 16 -24
63 16 -24
64 -35 -20
65 -35 -20
66 -35 -20
67 -35 -20
68 -36 4
69 -36 4
70 -36 4
71 -36 4
72 9 43
73 9 43
74 9 43
75 9 43
76 9 43
77 -17 26
78 -17 26
79 -17 26
80 -17 26
81 6 6
82 6 6
83 6 6
84 6 6
85 6 6
86 6 6
87 12 36
88 12 36
89 12 36
90 12 36
91 12 36
92 12 42
93 12 42
94 12 42
95 12 42
96 12 42
97 15 -20
98 15 -20
99 15 -20
100 15 -20
101 15 -20
102 15 -20
103 8 43
104 8 43
105 8 43
106 8 43
107 8 43
108 8 43
109 -39 -42
110 -39 -42
111 -39 -42
112 -39 -42
113 -39 -42
114 -39 -42
115 -39 -42
116 -39 -42
117 -24 -44
118 -24 -44
119 -24 -44
120 -24 -44
121 -24 -44
122 -24 -44
123 -14 -24
124 -14 -24
125 -14 -24
126 -46 8
127 -46 8
128 -6 0
129 -6 0
130 28 -35
131 28 -35
132 28 -35
133 28 -35
134 28 -35
135 -29 -5
136 -29 -5
137 -29 -5
138 -29 -5
139 -49 -48
140 -49 -48
141 -49 -48
142 -49 -48
143 -49 -48
144 -49 -48
145 -49 -48
146 48 -26
147 48 -26
148 48 -26
149 48 -26
150 48 -26
151 16 36
152 16 36
153 16 36
154 16 36
155 48 -42
156 48 -42
157 48 -42
158 48 -42
159 48 -42
160 48 -42
161 9 -32
162 9 -32
163 9 -32
164 9 -32
165 9 -32
166 -16 13
167 -16 13
168 -16 13
169 -16 13
170 -16 13
171 -10 41
172 -10 41
173 -10 41
174 -10 41
175 -10 41
176 -10 41
177 -10 41
178 -10 41
179 33 15
180 33 15
181 33 15
182 33 15
183 33 15
184 33 15
185 16 -30
186 16 -30
187 -26 40
188 -26 40
189 -26 40
190 -50 10
191 -50 10
192 -50 10
193 -50 10
194 -50 10
195 -50 10
196 -39 36
197 -39 36
198 -39 36
199 -39 36
200 -39 36
201 -39 36
202 -13 -10
203 -13 -10
204 -13 -10
205 -13 -10
206 -13 -10
207 -50 -17
208 -50 -17
209 -11 -35
210 -11 -35
211 -11 -35
212 -48 -43
213 -48 -43
214 -48 -43
215 -48 -43
216 -48 -43
217 -48 -43
218 -48 -43
219 25 -36
220 25 -36
221 25 -36
222 -2 26
223 -2 26
224 -2 26
225 -2 26
226 -2 26
227 -2 26
228 -2 26
229 -31 -43
230 -31 -43
231 -31 -43
232 41 2
233 41 2
234 41 2
235 41 2
236 41 2
237 41 2
238 10 31
239 10 31
240 31 -15
241 31 -15
242 31 -15
243 31 -15
244 31 -15
245 6 -50
246 6 -50
247 -31 -12
248 -31 -12
249 -31 -12
250 -29 -23
251 -29 -23
252 10 -15
253 -37 -11
254 -37 -11
255 -37 -11
256 -37 -11
257 -37 -11
258 -45 -17
259 -45 -17
260 -45 -17
261 -45 -17
262 -45 -17
263 -45 -17
264 -45 -17
265 -45 -17
266 -38 -6
267 -38 -6
268 -38 -6
269 -48 43
270 -48 43
271 -48 43
272 -33 -4
273 -33 -4
274 -33 -4
275 -33 -4
276 -47 4
277 -47 4
278 -47 4
279 -47 4
280 -49 8
281 -49 8
282 -49 8
283 -49 8
284 -49 8
285 -49 8
286 18 -45
287 18 -45
288 18 -45
289 18 -45
290 18 -45
291 18 -45
292 18 -45
293 -36 -47
294 -36 -47
295 -36 -47
296 -36 -47
297 -36 -47
298 -18 -22
299 -18 -22
300 -18 -22
301 11 -19
302 11 -19
303 11 -19
304 11 -19
305 -17 -12
306 -17 -12
307 -17 -12
308 -17 -12
309 -17 -12
310 -17 -12
311 -17 -12
312 -17 -12
313 -14 30
314 -14 30
315 -14 30
316 -14 30
317 -49 -11
318 -49 -11
319 -48 29
320 -48 29
321 -48 29
322 -48 29
323 -48 29
324 -16 1
325 -16 1
326 -16 1
327 -16 1
328 -16 1
329 -16 1
330 -16 1
331 -28 24
332 -28 24
333 -28 24
334 -28 24
335 -28 24
336 -28 24
337 8 6
338 8 6
339 8 6
340 8 6
341 -6 -27
342 -6 -27
343 -6 -27
344 47 -8
345 47 -8
346 47 -8
347 47 -8
348 42 28
349 42 28
350 -20 -49
351 -20 -49
352 -20 -49
353 32 18
354 32 18
355 32 18
356 32 18
357 32 18
358 -47 24
359 -47 24
360 35 30
361 35 30
362 35 30
363 35 30
364 -41 -28
365 -41 -28
366 -41 -28
367 -41 -28
368 2 28
369 2 28
370 2 28
371 2 28
372 2 28
373 -44 47
374 -44 47
375 -44 47
376 -44 47
377 -41 -36
378 -41 -36
379 -41 -36
380 -41 -36
381 -41 -36
382 31 14
383 31 14
384 8 -22
385 8 -22
386 8 -22
387 8 -22
388 17 23
389 17 23
390 17 23
391 17 23
392 17 23
393 17 23
394 17 23
395 -34 -2
396 -34 -2
397 -34 -2
398 -9 -29
399 -9 -29
400 -9 -29
401 -9 -29
402 -17 21
403 -17 21
404 -17 21
405 -17 21
406 -17 21
407 -17 21
408 22 23
409 -8 -40
410 -8 -40
411 -34 18
412 -34 18
413 -34 18
414 -34 18
415 -34 18
416 -34 18
417 -34 18
418 40 -19
419 40 -19
420 40 -19
421 40 -19
422 18 -41
423 18 -41
424 18 -41
425 18 -41
426 18 -41
427 18 -41
428 43 -23
429 -37 44
430 -37 44
431 -37 44
432 -37 44
433 -37 44
434 -37 44
435 -37 44
436 -37 44
437 -49 28
438 -49 28
439 -49 28
440 -49 28
441 -49 28
442 -49 28
443 -49 28
444 -14 -1
445 -14 -1
446 -14 -1
447 -14 -1
448 49 -6
449 49 -6
450 49 -6
451 49 -6
452 49 -6
453 -4 21
454 -4 21
455 -4 21
456 -4 21
457 -4 21
458 -4 21
459 -31 26
460 -31 26
461 -31 26
462 -36 45
463 -36 45
464 41 -48
465 41 -48
466 41 -48
467 41 -48
468 41 -48
469 39 23
470 39 23
471 39 23
472 39 23
473 39 23
474 39 23
475 39 23
476 46 50
477 46 50
478 46 50
479 46 50
480 46 50
481 46 50
482 1 6
483 1 6
484 1 6
485 1 6
486 1 6
487 -29 28
488 -29 28
489 -29 28
490 -29 28
491 -31 -10
492 -31 -10
493 -31 -10
494 -31 -10
495 -31 -10
496 10 46
497 10 46
498 1 19
499 1 19
500 1 19
501 -26 -22
502 -26 -22
503 24 8
504 24 8
505 24 8
506 24 8
507 24 8
508 -42 -41
509 -42 -41
510 -42 -41
511 -42 -41
512 -29 32
513 -29 32
514 -29 32
515 -29 32
516 -29 32
517 -29 32
518 34 38
519 34 38
520 41 -39
521 41 -39
522 41 -39
523 41 -39
524 36 -3
525 36 -3
526 36 -3
527 36 -3
528 36 -3
529 -31 -46
530 -31 -46
531 6 25
532 6 25
533 6 25
534 6 25
535 6 25
536 43 -14
537 43 -14
538 43 -14
539 43 -14
540 -4 -15
541 -4 -15
542 -4 -15
543 -4 -15
544 1 -27
545 1 -27
546 1 -27
547 1 -27
548 1 -27
549 1 -27
550 24 -44
551 24 -44
552 24 -44
553 24 -44
554 24 -44
555 44 -22
556 44 -22
557 4 45
558 4 45
559 4 45
560 4 45
561 4 45
562 47 -8
563 47 -8
564 -49 -35
565 -49 -35
566 -49 -35
567 -1 35
568 -1 35
569 24 -25
570 24 -25
571 24 -25
572 24 -25
573 24 -25
574 24 -25
575 24 -25
576 24 -25
577 3 -7
578 3 -7
579 3 -7
580 3 -7
581 3 -7
582 -37 46
583 -37 46
584 -37 46
585 -37 46
586 -34 17
587 -34 17
588 -34 17
589 -34 17
590 -34 17
591 -34 17
592 -34 17
593 -25 -35
594 -25 -35
595 -25 -35
596 11 39
597 11 39
598 11 39
599 11 39
600 -36 45
601 -36 45
602 -36 45
603 -36 45
604 -36 45
605 -36 45
606 43 2
607 43 2
608 43 2
609 43 2
610 43 2
611 43 2
612 -40 48
613 -40 48
614 -40 48
615 -40 48
616 -40 48
617 9 -46
618 9 -46
619 -33 5
620 -33 5
621 -33 5
622 -33 5
623 -33 5
624 -33 5
625 -33 5
626 -33 5
627 -35 18
628 -35 18
629 -35 18
630 -35 18
631 -35 18
632 24 -39
633 24 -39
634 24 -39
635 -31 -31
636 -31 -31
637 -31 -31
638 -31 -31
639 -31 -31
640 -31 -31
641 -38 -36
642 -38 -36
643 -38 -36
644 -38 -36
645 -38 -36
646 -38 -36
647 -43 50
648 -43 50
649 -43 50
650 -43 50
651 -30 -45
652 -30 -45
653 -15 17
654 -15 17
655 -15 17
656 31 -13
657 31 -13
658 49 -50
659 49 -50
660 49 -50
661 49 -50
662 49 -50
663 49 -50
664 49 -50
665 -42 47
DEMAND_SECTION
1 0
2 400
3 20
4 10
5 200
6 100
7 20
8 400
9 20
10 20
11 20
12 400
13 400
14 400
15 200
16 20
17 20
18 20
19 20
20 10
21 400
22 200
23 20
24 20
25 20
26 400
27 200
28 20
29 20
30 400
31 200
32 20
33 20
34 400
35 200
36 100
37 20
38 20
39 20
40 20
41 10
42 400
43 100
44 20
45 20
46 20
47 400
48 20
49 20
50 20
51 400
52 200
53 20
54 20
55 20
56 20
57 10
58 400
59 400
60 20
61 20
62 20
63 20
64 400
65 100
66 20
67 20
68 200
69 100
70 20
71 10
72 400
73 200
74 100
75 20
76 10
77 200
78 20
79 20
80 20
81 400
82 200
83 20
84 20
85 20
86 10
87 400
88 200
89 20
90 20
91 20
92 400
93 100
94 20
95 20
96 10
97 400
98 400
99 100
100 20
101 20
102 10
103 400
104 200
105 20
106 20
107 20
108 10
109 400
110 400
111 100
112 20
113 20
114 20
115 20
116 10
117 400
118 200
119 20
120 20
121 20
122 20
123 400
124 400
125 20
126 400
127 400
128 200
129 100
130 400
131 400
132 20
133 20
134 20
135 400
136 20
137 20
138 10
139 400
140 200
141 20
142 20
143 20
144 20
145 10
146 400
147 200
148 100
149 20
150 20
151 200
152 100
153 20
154 10
155 200
156 20
157 20
158 20
159 20
160 10
161 200
162 20
163 20
164 20
165 10
166 400
167 200
168 100
169 20
170 20
171 400
172 200
173 100
174 20
175 20
176 20
177 20
178 10
179 400
180 200
181 20
182 20
183 20
184 10
185 400
186 200
187 400
188 200
189 100
190 200
191 20
192 20
193 20
194 20
195 10
196 400
197 100
198 20
199 20
200 20
201 20
202 400
203 100
204 20
205 20
206 20
207 400
208 200
209 400
210 100
211 20
212 400
213 200
214 20
215 20
216 20
217 20
218 10
219 400
220 200
221 100
222 400
223 400
224 100
225 20
226 20
227 20
228 10
229 400
230 20
231 10
232 400
233 400
234 100
235 20
236 20
237 20
238 200
239 100
240 400
241 100
242 20
243 20
244 10
245 400
246 10
247 200
248 100
249 10
250 400
251 200
252 400
253 200
254 100
255 20
256 20
257 20
258 400
259 200
260 100
261 20
262 20
263 20
264 20
265 10
266 400
267 200
268 100
269 400
270 400
271 10
272 400
273 100
274 20
275 10
276 400
277 200
278 20
279 10
280 400
281 200
282 100
283 20
284 20
285 10
286 400
287 200
288 20
289 20
290 20
291 20
292 10
293 200
294 20
295 20
296 20
297 20
298 400
299 200
300 100
301 400
302 200
303 20
304 20
305 400
306 400
307 100
308 20
309 20
310 20
311 20
312 10
313 400
314 200
315 100
316 10
317 400
318 400
319 400
320 200
321 100
322 20
323 20
324 400
325 100
326 20
327 20
328 20
329 20
330 10
331 400
332 200
333 20
334 20
335 20
336 10
337 400
338 100
339 20
340 20
341 400
342 400
343 100
344 400
345 200
346 100
347 20
348 400
349 20
350 400
351 20
352 20
353 200
354 100
355 20
356 20
357 20
358 400
359 10
360 200
361 20
362 20
363 10
364 400
365 200
366 100
367 20
368 400
369 400
370 100
371 20
372 20
373 400
374 20
375 20
376 10
377 400
378 20
379 20
380 20
381 20
382 400
383 20
384 400
385 20
386 20
387 10
388 400
389 100
390 20
391 20
392 20
393 20
394 10
395 400
396 400
397 100
398 200
399 20
400 20
401 20
402 400
403 100
404 20
405 20
406 20
407 20
408 400
409 400
410 100
411 400
412 200
413 20
414 20
415 20
416 20
417 10
418 400
419 400
420 20
421 10
422 400
423 200
424 20
425 20
426 20
427 20
428 400
429 400
430 400
431 100
432 20
433 20
434 20
435 20
436 10
437 200
438 100
439 20
440 20
441 20
442 20
443 10
444 400
445 100
446 20
447 10
448 400
449 400
450 100
451 20
452 20
453 400
454 200
455 20
456 20
457 20
458 20
459 400
460 400
461 200
462 400
463 400
464 400
465 200
466 100
467 20
468 20
469 400
470 200
471 100
472 20
473 20
474 20
475 10
476 400
477 200
478 20
479 20
480 20
481 10
482 400
483 100
484 20
485 20
486 20
487 200
488 100
489 20
490 20
491 400
492 20
493 20
494 20
495 10
496 200
497 100
498 400
499 100
500 10
501 400
502 100
503 200
504 100
505 20
506 20
507 10
508 400
509 20
510 20
511 10
512 200
513 100
514 20
515 20
516 20
517 20
518 400
519 10
520 200
521 100
522 20
523 10
524 200
525 20
526 20
527 20
528 20
529 200
530 100
531 400
532 200
533 20
534 20
535 10
536 200
537 20
538 20
539 20
540 400
541 400
542 100
543 10
544 400
545 400
546 20
547 20
548 20
549 10
550 200
551 20
552 20
553 20
554 20
555 200
556 100
557 400
558 200
559 20
560 20
561 10
562 400
563 100
564 400
565 200
566 20
567 400
568 200
569 400
570 400
571 100
572 20
573 20
574 20
575 20
576 10
577 400
578 100
579 20
580 20
581 10
582 400
583 100
584 20
585 10
586 200
587 100
588 20
589 20
590 20
591 20
592 10
593 400
594 20
595 10
596 400
597 20
598 20
599 20
600 400
601 200
602 100
603 20
604 20
605 20
606 400
607 20
608 20
609 20
610 20
611 10
612 400
613 20
614 20
615 20
616 10
617 400
618 10
619 400
620 200
621 100
622 20
623 20
624 20
625 20
626 10
627 400
628 400
629 20
630 20
631 10
632 400
633 200
634 20
635 400
636 400
637 100
638 20
639 20
640 20
641 400
642 100
643 20
644 20
645 20
646 20
647 400
648 400
649 100
650 10
651 400
652 100
653 400
654 100
655 10
656 400
657 400
658 400
659 200
660 20
661 20
662 20
663 20
664 10
665 400
DEPOT_SECTION
1
-1
EOF