SDVRP instances/custom_instances/p04_17_splitx10_0.sol
664 -4 6 359 360 362 361 347 348 477 478 480 476 479 475 517 518 389 -18 17 16 15 13 19 14 159 158 154 157 156 155 662 663 657 660 658 661 659 520 521 522 519 -24 20 21 22 23 410 415 412 413 416 627 626 629 587 588 591 -29 32 31 30 656 655 239 243 242 241 240 -39 311 308 309 307 230 229 228 295 293 294 296 292 528 529 650 651 592 -40 35 37 33 34 36 38 304 305 310 201 -45 44 43 220 219 218 130 129 131 133 46 -47 49 48 427 148 149 146 145 147 554 555 420 417 -58 60 57 62 59 61 41 42 185 184 -64 63 52 56 258 261 260 264 259 263 257 262 255 256 253 254 252 246 248 247 -65 66 50 55 54 53 51 363 365 366 364 645 641 644 640 643 642 -77 79 78 76 314 313 315 312 172 176 171 177 175 173 174 170 454 453 457 -83 85 82 84 81 80 336 338 540 539 541 542 -93 95 94 91 92 496 495 75 71 73 102 103 107 -128 127 169 165 166 168 404 405 403 401 402 652 653 -134 137 136 135 265 266 394 620 618 623 -139 143 138 140 141 144 142 211 214 215 212 217 216 213 565 564 563 -162 163 161 160 164 617 616 244 245 287 289 291 288 290 285 286 424 422 -167 334 200 196 197 199 198 195 270 269 268 374 373 372 375 -187 614 612 615 611 613 649 647 648 646 664 -188 186 599 462 601 604 600 516 512 511 513 514 515 -204 203 205 202 306 297 299 298 123 122 124 397 -221 227 224 226 225 222 223 497 484 481 485 482 483 -231 609 610 605 447 449 448 451 450 523 525 -234 235 232 236 233 607 606 608 472 474 471 473 469 470 468 5 407 -251 97 96 99 98 101 100 302 300 303 301 -273 267 317 316 206 207 494 490 493 492 491 -319 322 318 321 320 438 436 440 437 439 441 442 27 28 25 26 411 414 -326 327 329 328 325 324 323 395 396 271 274 272 443 -333 331 332 330 335 458 460 459 488 486 487 489 -339 337 356 354 352 353 355 178 180 179 182 183 181 382 381 504 503 506 502 505 -342 341 340 408 409 210 208 209 399 398 400 -349 350 351 117 118 121 120 116 119 11 12 594 593 -376 379 377 378 380 509 510 507 508 114 113 111 110 115 109 112 108 637 638 639 -390 393 391 392 387 388 150 152 151 153 90 87 89 86 88 237 238 533 534 499 498 -419 418 536 535 537 538 345 561 562 344 346 343 527 524 526 -423 425 421 426 631 632 633 570 573 568 569 -432 429 428 434 431 433 435 430 584 583 581 582 603 602 461 406 654 -446 445 444 70 67 276 275 278 277 125 126 622 619 625 -452 455 456 367 368 371 370 369 531 532 530 -501 500 250 249 636 635 634 -543 546 544 548 547 545 386 383 385 384 577 576 578 579 580 -550 553 552 551 549 2 3 1 464 466 465 463 467 9 7 10 8 132 572 574 571 575 -566 567 560 556 558 559 557 104 105 106 72 74 595 597 596 598 -589 586 585 590 628 630 357 358 190 193 191 189 194 192 281 283 280 279 284 282 68 69 621 624 0 





OBJ=
4350.574
BEST_KNOWN=
0.000